This is Ipopt version 3.10.0, running with linear solver ma27.

Number of nonzeros in equality constraint Jacobian...:        0
Number of nonzeros in inequality constraint Jacobian.:       16
Number of nonzeros in Lagrangian Hessian.............:        0

Total number of variables............................:       16
                     variables with only lower bounds:        0
                variables with lower and upper bounds:       16
                     variables with only upper bounds:        0
Total number of equality constraints.................:        0
Total number of inequality constraints...............:        1
        inequality constraints with only lower bounds:        0
   inequality constraints with lower and upper bounds:        0
        inequality constraints with only upper bounds:        1

iter    objective    inf_pr   inf_du lg(mu)  ||d||  lg(rg) alpha_du alpha_pr  ls
   0  2.6121243e-03 2.93e-01 9.96e-01   0.0 0.00e+00    -  0.00e+00 0.00e+00   0
   1  6.5806821e-03 0.00e+00 6.11e-01  -1.6 2.44e-02    -  1.00e+00 1.00e+00h  1
   2  5.6811343e-03 0.00e+00 8.73e-02  -2.7 5.41e-03    -  1.00e+00 1.00e+00h  1
   3  4.8194867e-03 0.00e+00 6.87e-02  -3.4 8.35e-03    -  9.99e-01 1.00e+00h  1
   4  4.6390800e-03 0.00e+00 3.35e-02  -4.4 1.35e-02    -  1.00e+00 1.00e+00h  1
   5  4.4738755e-03 0.00e+00 2.24e-02  -3.8 2.87e-02    -  1.00e+00 9.80e-02h  4
   6  4.4359191e-03 0.00e+00 3.01e-02  -4.5 7.94e-03    -  1.00e+00 1.00e+00H  1
   7  4.3436145e-03 0.00e+00 5.06e-02  -5.6 4.96e-03    -  1.00e+00 1.00e+00h  1
   8  4.2858578e-03 1.70e-03 4.48e-02  -6.0 6.36e-03    -  1.00e+00 1.00e+00h  1
   9  4.3458354e-03 1.26e-03 6.03e-02  -6.4 8.59e-03    -  1.00e+00 1.00e+00h  1
iter    objective    inf_pr   inf_du lg(mu)  ||d||  lg(rg) alpha_du alpha_pr  ls
  10  4.2698820e-03 2.60e-03 3.88e-02  -6.5 4.74e-02    -  1.43e-01 9.37e-02h  1
  11  4.2747831e-03 2.71e-03 3.73e-02  -5.9 6.15e-03    -  1.00e+00 2.19e-01f  1
  12  4.2958966e-03 1.98e-03 2.55e-02  -5.9 5.99e-03    -  1.00e+00 5.47e-01h  1
  13  4.2564511e-03 2.20e-03 2.51e-02  -5.9 1.14e-02    -  1.00e+00 2.23e-01f  1
  14  4.2921092e-03 0.00e+00 4.35e-03  -5.1 3.41e-03    -  1.00e+00 1.00e+00f  1
  15  4.2567821e-03 8.24e-04 9.91e-03  -5.9 6.07e-03    -  1.00e+00 1.00e+00h  1
  16  4.2453018e-03 1.96e-04 6.56e-03  -7.4 4.61e-03    -  1.00e+00 1.00e+00h  1
  17  4.2134546e-03 0.00e+00 9.51e-03  -5.0 5.04e-03    -  1.00e+00 1.00e+00h  1
  18  4.2082927e-03 3.37e-04 9.27e-04  -6.0 2.75e-03    -  1.00e+00 1.00e+00h  1
  19  4.2197968e-03 5.21e-04 1.75e-03  -7.0 1.54e-03    -  1.00e+00 1.00e+00h  1
iter    objective    inf_pr   inf_du lg(mu)  ||d||  lg(rg) alpha_du alpha_pr  ls
  20  4.2260683e-03 1.23e-05 1.02e-03  -8.6 3.69e-05    -  1.00e+00 1.00e+00h  1

Number of Iterations....: 20

                                   (scaled)                 (unscaled)
Objective...............:   4.2260683427906374e-03    4.2260683427906374e-03
Dual infeasibility......:   1.0179198995737622e-03    1.0179198995737622e-03
Constraint violation....:   1.2286367132312580e-05    1.2286367132312580e-05
Complementarity.........:   5.7820284489682138e-09    5.7820284489682138e-09
Overall NLP error.......:   1.0179198995737622e-03    1.0179198995737622e-03


Number of objective function evaluations             = 28
Number of objective gradient evaluations             = 21
Number of equality constraint evaluations            = 0
Number of inequality constraint evaluations          = 28
Number of equality constraint Jacobian evaluations   = 0
Number of inequality constraint Jacobian evaluations = 21
Number of Lagrangian Hessian evaluations             = 0
Total CPU secs in IPOPT (w/o function evaluations)   =      0.728
Total CPU secs in NLP function evaluations           =  98779.111

EXIT: Stopping optimization at current point as requested by user.
